
  22    4
  10   10   10   10

   0   0   0   0   0   4 2 3 5 8 
   3  10  10  10  10   4 16 14 9 4 
   2  10  10  10  10   4 16 12 7 6 
   8  10  10  10  10   4 13 12 11 7 
   3  10  10  10  10   4 16 14 13 11 
   2  10  10  10  10   3 13 11 10 
   8  10  10  10  10   2 15 10 
   9  10  10  10  10   2 16 11 
  10  10  10  10  10   2 13 11 
   2  10  10  10  10   5 21 20 19 18 17 
   2  10  10  10  10   3 19 18 15 
   1  10  10  10  10   3 21 19 17 
   7  10  10  10  10   2 18 17 
   6  10  10  10  10   2 19 18 
   2  10  10  10  10   1 17 
   4  10  10  10  10   1 20 
   8  10  10  10  10   1 22
   9  10  10  10  10   1 22
   1  10  10  10  10   1 22
   1  10  10  10  10   1 22
   3  10  10  10  10   1 22
   0   0   0   0   0   0 
